width,height
25,25
12,10
21,9
23,6
6,10
15,5
10,4
14,6
23,3
14,1
2,5
14,7
11,8
18,6
16,3
7,6
8,6
9,7
24,7
11,5
25,9
14,3
13,9
4,2
25,1
3,1
22,2
1,10
21,2
12,2
25,5
24,7
2,5
12,8
24,8
8,8
4,7
15,3
19,3
22,2
1,3
13,8
12,9
2,2
6,9
15,6
3,6
8,4
8,3
9,3
18,8
14,4
15,4
15,2
14,3
11,9
10,5
22,9
5,7
17,9
21,3
15,1
15,2
18,6
18,3
16,2
7,4
17,6
6,9
22,3
1,8
23,5
6,5
16,4
13,8
6,6
5,8
19,4
4,3
23,7
2,2
21,1
9,6
7,10
21,4
3,10
25,10
17,1
5,3
13,3
25,2
23,2
14,10
23,6
6,2
13,9
8,2
1,8
2,9
22,7
10,5
